Global Parameters
  ISTART =  1         
  ISPIN =  2          
  ICHARG =  1         
  LREAL  = Auto       
  ENCUT  =  550       
  PREC   =  Accurate  
  LWAVE  = .TRUE.     
  LCHARG = .TRUE.     
  ADDGRID= .TRUE.      
  NPAR   = 4        
  NWRITE = 2        
    
 
Electronic Relaxation
  ISMEAR =  0         
  SIGMA  =  0.05      
  NELM   =  200             
  EDIFF  =  1E-05            
 
Ionic Relaxation
  NSW    =  200       
  IBRION =  2         
  ISIF   =  3         
  EDIFFG = -3.0E-2    
  ISYM =  0           
  IVDW =  11
